NAME : d18512
COMMENT : Bundesrepublik Deutschland (mit Ex-DDR) (Bachem/Wottawa)
TYPE : TSP
DIMENSION : 18512
EDGE_WEIGHT_TYPE : EUC_2D
NODE_COORD_SECTION
    1    2918    6528
    2    2925    6597
    3    2926    6609
    4    2927    6312